\* Source Pyomo model name=unknown *\

min 
objective:
-6.1633796227705497 x(10_A)
-6.1633796227705497 x(10_B)
-6.1633796227705497 x(10_C)
-2.7455298037867291 x(11_A)
-2.7455298037867291 x(11_B)
-2.7455298037867291 x(11_C)
-1 x(12_A)
-1 x(12_B)
-1 x(12_C)
-1 x(13_A)
-1 x(13_B)
-1 x(13_C)
-3.5385395512427178 x(14_A)
-3.5385395512427178 x(14_B)
-3.5385395512427178 x(14_C)
-2.00643376730206 x(15_A)
-2.00643376730206 x(15_B)
-2.00643376730206 x(15_C)
-1.8708905282547139 x(16_A)
-1.8708905282547139 x(16_B)
-1.8708905282547139 x(16_C)
-5.1545872432610498 x(17_A)
-5.1545872432610498 x(17_B)
-5.1545872432610498 x(17_C)
-4.5540000000000003 x(18_A)
-4.5540000000000003 x(18_B)
-4.5540000000000003 x(18_C)
-6.5630480612203401 x(19_A)
-6.5630480612203401 x(19_B)
-6.5630480612203401 x(19_C)
-1.9479386519540129 x(1_A)
-1.9479386519540129 x(1_B)
-1.9479386519540129 x(1_C)
-5.3499819683173122 x(20_A)
-5.3499819683173122 x(20_B)
-5.3499819683173122 x(20_C)
-1 x(21_A)
-1 x(21_B)
-1 x(21_C)
-1 x(22_A)
-1 x(22_B)
-1 x(22_C)
-3.6770072482387999 x(23_A)
-3.6770072482387999 x(23_B)
-3.6770072482387999 x(23_C)
-2.775437550022096 x(24_A)
-2.775437550022096 x(24_B)
-2.775437550022096 x(24_C)
-1.378157267994776 x(25_A)
-1.378157267994776 x(25_B)
-1.378157267994776 x(25_C)
-2.55110146934202 x(26_A)
-2.55110146934202 x(26_B)
-2.55110146934202 x(26_C)
-1 x(27_A)
-1 x(27_B)
-1 x(27_C)
-3.7706955857648259 x(28_A)
-3.7706955857648259 x(28_B)
-3.7706955857648259 x(28_C)
-3.0407535739757199 x(29_A)
-3.0407535739757199 x(29_B)
-3.0407535739757199 x(29_C)
-5.189848498086759 x(2_A)
-5.189848498086759 x(2_B)
-5.189848498086759 x(2_C)
-7.7834525908599996 x(30_A)
-7.7834525908599996 x(30_B)
-7.7834525908599996 x(30_C)
-3.9736261552526648 x(31_A)
-3.9736261552526648 x(31_B)
-3.9736261552526648 x(31_C)
-4.1334649363396636 x(32_A)
-4.1334649363396636 x(32_B)
-4.1334649363396636 x(32_C)
-3.5223865527776579 x(33_A)
-3.5223865527776579 x(33_B)
-3.5223865527776579 x(33_C)
-2.4865538571690862 x(34_A)
-2.4865538571690862 x(34_B)
-2.4865538571690862 x(34_C)
-2.3658715133579671 x(35_A)
-2.3658715133579671 x(35_B)
-2.3658715133579671 x(35_C)
-1.336453615824172 x(36_A)
-1.336453615824172 x(36_B)
-1.336453615824172 x(36_C)
-5.5852266688220498 x(37_A)
-5.5852266688220498 x(37_B)
-5.5852266688220498 x(37_C)
-4.8672172368826443 x(38_A)
-4.8672172368826443 x(38_B)
-4.8672172368826443 x(38_C)
-3.4685231020049678 x(39_A)
-3.4685231020049678 x(39_B)
-3.4685231020049678 x(39_C)
-4.4315702843652449 x(3_A)
-4.4315702843652449 x(3_B)
-4.4315702843652449 x(3_C)
-8.8327907279798907 x(40_A)
-8.8327907279798907 x(40_B)
-8.8327907279798907 x(40_C)
-4.1447458116334897 x(41_A)
-4.1447458116334897 x(41_B)
-4.1447458116334897 x(41_C)
-3.04960410562038 x(42_A)
-3.04960410562038 x(42_B)
-3.04960410562038 x(42_C)
-3.315760285521693 x(43_A)
-3.315760285521693 x(43_B)
-3.315760285521693 x(43_C)
-2.745052739659962 x(44_A)
-2.745052739659962 x(44_B)
-2.745052739659962 x(44_C)
-1 x(45_A)
-1 x(45_B)
-1 x(45_C)
-1.4249699467105099 x(46_A)
-1.4249699467105099 x(46_B)
-1.4249699467105099 x(46_C)
-7.32082516577593 x(47_A)
-7.32082516577593 x(47_B)
-7.32082516577593 x(47_C)
-8.7550797955705999 x(48_A)
-8.7550797955705999 x(48_B)
-8.7550797955705999 x(48_C)
-1 x(49_A)
-1 x(49_B)
-1 x(49_C)
-6.1574675225911202 x(4_A)
-6.1574675225911202 x(4_B)
-6.1574675225911202 x(4_C)
-4.6308225088885999 x(50_A)
-4.6308225088885999 x(50_B)
-4.6308225088885999 x(50_C)
-5.3743106293504299 x(5_A)
-5.3743106293504299 x(5_B)
-5.3743106293504299 x(5_C)
-5.9013573402242434 x(6_A)
-5.9013573402242434 x(6_B)
-5.9013573402242434 x(6_C)
-1 x(7_A)
-1 x(7_B)
-1 x(7_C)
-5.8741965711466504 x(8_A)
-5.8741965711466504 x(8_B)
-5.8741965711466504 x(8_C)
-2.8159357191296701 x(9_A)
-2.8159357191296701 x(9_B)
-2.8159357191296701 x(9_C)

s.t.

c_u_availability_constraint(1)_:
+1 x(1_A)
+1 x(1_B)
+1 x(1_C)
<= 1

c_u_availability_constraint(2)_:
+1 x(2_A)
+1 x(2_B)
+1 x(2_C)
<= 1

c_u_availability_constraint(3)_:
+1 x(3_A)
+1 x(3_B)
+1 x(3_C)
<= 1

c_u_availability_constraint(4)_:
+1 x(4_A)
+1 x(4_B)
+1 x(4_C)
<= 2

c_u_availability_constraint(5)_:
+1 x(5_A)
+1 x(5_B)
+1 x(5_C)
<= 1

c_u_availability_constraint(6)_:
+1 x(6_A)
+1 x(6_B)
+1 x(6_C)
<= 1

c_u_availability_constraint(7)_:
+1 x(7_A)
+1 x(7_B)
+1 x(7_C)
<= 2

c_u_availability_constraint(8)_:
+1 x(8_A)
+1 x(8_B)
+1 x(8_C)
<= 3

c_u_availability_constraint(9)_:
+1 x(9_A)
+1 x(9_B)
+1 x(9_C)
<= 2

c_u_availability_constraint(10)_:
+1 x(10_A)
+1 x(10_B)
+1 x(10_C)
<= 2

c_u_availability_constraint(11)_:
+1 x(11_A)
+1 x(11_B)
+1 x(11_C)
<= 1

c_u_availability_constraint(12)_:
+1 x(12_A)
+1 x(12_B)
+1 x(12_C)
<= 1

c_u_availability_constraint(13)_:
+1 x(13_A)
+1 x(13_B)
+1 x(13_C)
<= 1

c_u_availability_constraint(14)_:
+1 x(14_A)
+1 x(14_B)
+1 x(14_C)
<= 1

c_u_availability_constraint(15)_:
+1 x(15_A)
+1 x(15_B)
+1 x(15_C)
<= 2

c_u_availability_constraint(16)_:
+1 x(16_A)
+1 x(16_B)
+1 x(16_C)
<= 1

c_u_availability_constraint(17)_:
+1 x(17_A)
+1 x(17_B)
+1 x(17_C)
<= 2

c_u_availability_constraint(18)_:
+1 x(18_A)
+1 x(18_B)
+1 x(18_C)
<= 2

c_u_availability_constraint(19)_:
+1 x(19_A)
+1 x(19_B)
+1 x(19_C)
<= 1

c_u_availability_constraint(20)_:
+1 x(20_A)
+1 x(20_B)
+1 x(20_C)
<= 1

c_u_availability_constraint(21)_:
+1 x(21_A)
+1 x(21_B)
+1 x(21_C)
<= 2

c_u_availability_constraint(22)_:
+1 x(22_A)
+1 x(22_B)
+1 x(22_C)
<= 1

c_u_availability_constraint(23)_:
+1 x(23_A)
+1 x(23_B)
+1 x(23_C)
<= 3

c_u_availability_constraint(24)_:
+1 x(24_A)
+1 x(24_B)
+1 x(24_C)
<= 2

c_u_availability_constraint(25)_:
+1 x(25_A)
+1 x(25_B)
+1 x(25_C)
<= 1

c_u_availability_constraint(26)_:
+1 x(26_A)
+1 x(26_B)
+1 x(26_C)
<= 2

c_u_availability_constraint(27)_:
+1 x(27_A)
+1 x(27_B)
+1 x(27_C)
<= 1

c_u_availability_constraint(28)_:
+1 x(28_A)
+1 x(28_B)
+1 x(28_C)
<= 1

c_u_availability_constraint(29)_:
+1 x(29_A)
+1 x(29_B)
+1 x(29_C)
<= 1

c_u_availability_constraint(30)_:
+1 x(30_A)
+1 x(30_B)
+1 x(30_C)
<= 1

c_u_availability_constraint(31)_:
+1 x(31_A)
+1 x(31_B)
+1 x(31_C)
<= 3

c_u_availability_constraint(32)_:
+1 x(32_A)
+1 x(32_B)
+1 x(32_C)
<= 2

c_u_availability_constraint(33)_:
+1 x(33_A)
+1 x(33_B)
+1 x(33_C)
<= 1

c_u_availability_constraint(34)_:
+1 x(34_A)
+1 x(34_B)
+1 x(34_C)
<= 1

c_u_availability_constraint(35)_:
+1 x(35_A)
+1 x(35_B)
+1 x(35_C)
<= 1

c_u_availability_constraint(36)_:
+1 x(36_A)
+1 x(36_B)
+1 x(36_C)
<= 1

c_u_availability_constraint(37)_:
+1 x(37_A)
+1 x(37_B)
+1 x(37_C)
<= 3

c_u_availability_constraint(38)_:
+1 x(38_A)
+1 x(38_B)
+1 x(38_C)
<= 1

c_u_availability_constraint(39)_:
+1 x(39_A)
+1 x(39_B)
+1 x(39_C)
<= 1

c_u_availability_constraint(40)_:
+1 x(40_A)
+1 x(40_B)
+1 x(40_C)
<= 2

c_u_availability_constraint(41)_:
+1 x(41_A)
+1 x(41_B)
+1 x(41_C)
<= 2

c_u_availability_constraint(42)_:
+1 x(42_A)
+1 x(42_B)
+1 x(42_C)
<= 1

c_u_availability_constraint(43)_:
+1 x(43_A)
+1 x(43_B)
+1 x(43_C)
<= 1

c_u_availability_constraint(44)_:
+1 x(44_A)
+1 x(44_B)
+1 x(44_C)
<= 1

c_u_availability_constraint(45)_:
+1 x(45_A)
+1 x(45_B)
+1 x(45_C)
<= 1

c_u_availability_constraint(46)_:
+1 x(46_A)
+1 x(46_B)
+1 x(46_C)
<= 1

c_u_availability_constraint(47)_:
+1 x(47_A)
+1 x(47_B)
+1 x(47_C)
<= 1

c_u_availability_constraint(48)_:
+1 x(48_A)
+1 x(48_B)
+1 x(48_C)
<= 1

c_u_availability_constraint(49)_:
+1 x(49_A)
+1 x(49_B)
+1 x(49_C)
<= 1

c_u_availability_constraint(50)_:
+1 x(50_A)
+1 x(50_B)
+1 x(50_C)
<= 1

c_u_weight_constraint(A)_:
+2.4759443680188848 x(10_A)
+9.5012331594069241 x(11_A)
+3.953451775862975 x(12_A)
+4.2373773348623507 x(13_A)
+3.403838042480801 x(14_A)
+5.909172420648952 x(15_A)
+4.7955199112130371 x(16_A)
+2.8124040215936921 x(17_A)
+1.2121559736642471 x(18_A)
+1.66123039548039 x(19_A)
+4.6612949253856577 x(1_A)
+7.2618664789906981 x(20_A)
+3.9161994409160159 x(21_A)
+5.8671442462804873 x(22_A)
+6.3563721097248136 x(23_A)
+6.4743225098079789 x(24_A)
+2.1410645366486651 x(25_A)
+3.992209517563714 x(26_A)
+8.1048382815438771 x(27_A)
+4.7840989526203321 x(28_A)
+6.2146663681335834 x(29_A)
+7.5147174714382077 x(2_A)
+1.280359637665897 x(30_A)
+9.340669316039067 x(31_A)
+3.4171820183349548 x(32_A)
+7.5642298270372663 x(33_A)
+6.001088818309583 x(34_A)
+6.9873168927771028 x(35_A)
+5.964296803081572 x(36_A)
+3.738109564581904 x(37_A)
+6.7364694562687246 x(38_A)
+8.7621864606785351 x(39_A)
+8.9960277450672361 x(3_A)
+7.6380689652001257 x(40_A)
+1.984159185796512 x(41_A)
+9.3602484551693479 x(42_A)
+3.1202783711835149 x(43_A)
+9.4747394110569125 x(44_A)
+6.2109131568078064 x(45_A)
+3.2920591766494152 x(46_A)
+5.3917885364492619 x(47_A)
+7.0729684628301612 x(48_A)
+1.42547623613636 x(49_A)
+3.684528628999963 x(4_A)
+5.5241513978400709 x(50_A)
+5.8116559598080189 x(5_A)
+5.0675276545279679 x(6_A)
+5.5495480869339042 x(7_A)
+2.0944342048844931 x(8_A)
+2.876504396141621 x(9_A)
<= 21

c_u_weight_constraint(B)_:
+2.4759443680188848 x(10_B)
+9.5012331594069241 x(11_B)
+3.953451775862975 x(12_B)
+4.2373773348623507 x(13_B)
+3.403838042480801 x(14_B)
+5.909172420648952 x(15_B)
+4.7955199112130371 x(16_B)
+2.8124040215936921 x(17_B)
+1.2121559736642471 x(18_B)
+1.66123039548039 x(19_B)
+4.6612949253856577 x(1_B)
+7.2618664789906981 x(20_B)
+3.9161994409160159 x(21_B)
+5.8671442462804873 x(22_B)
+6.3563721097248136 x(23_B)
+6.4743225098079789 x(24_B)
+2.1410645366486651 x(25_B)
+3.992209517563714 x(26_B)
+8.1048382815438771 x(27_B)
+4.7840989526203321 x(28_B)
+6.2146663681335834 x(29_B)
+7.5147174714382077 x(2_B)
+1.280359637665897 x(30_B)
+9.340669316039067 x(31_B)
+3.4171820183349548 x(32_B)
+7.5642298270372663 x(33_B)
+6.001088818309583 x(34_B)
+6.9873168927771028 x(35_B)
+5.964296803081572 x(36_B)
+3.738109564581904 x(37_B)
+6.7364694562687246 x(38_B)
+8.7621864606785351 x(39_B)
+8.9960277450672361 x(3_B)
+7.6380689652001257 x(40_B)
+1.984159185796512 x(41_B)
+9.3602484551693479 x(42_B)
+3.1202783711835149 x(43_B)
+9.4747394110569125 x(44_B)
+6.2109131568078064 x(45_B)
+3.2920591766494152 x(46_B)
+5.3917885364492619 x(47_B)
+7.0729684628301612 x(48_B)
+1.42547623613636 x(49_B)
+3.684528628999963 x(4_B)
+5.5241513978400709 x(50_B)
+5.8116559598080189 x(5_B)
+5.0675276545279679 x(6_B)
+5.5495480869339042 x(7_B)
+2.0944342048844931 x(8_B)
+2.876504396141621 x(9_B)
<= 19

c_u_weight_constraint(C)_:
+2.4759443680188848 x(10_C)
+9.5012331594069241 x(11_C)
+3.953451775862975 x(12_C)
+4.2373773348623507 x(13_C)
+3.403838042480801 x(14_C)
+5.909172420648952 x(15_C)
+4.7955199112130371 x(16_C)
+2.8124040215936921 x(17_C)
+1.2121559736642471 x(18_C)
+1.66123039548039 x(19_C)
+4.6612949253856577 x(1_C)
+7.2618664789906981 x(20_C)
+3.9161994409160159 x(21_C)
+5.8671442462804873 x(22_C)
+6.3563721097248136 x(23_C)
+6.4743225098079789 x(24_C)
+2.1410645366486651 x(25_C)
+3.992209517563714 x(26_C)
+8.1048382815438771 x(27_C)
+4.7840989526203321 x(28_C)
+6.2146663681335834 x(29_C)
+7.5147174714382077 x(2_C)
+1.280359637665897 x(30_C)
+9.340669316039067 x(31_C)
+3.4171820183349548 x(32_C)
+7.5642298270372663 x(33_C)
+6.001088818309583 x(34_C)
+6.9873168927771028 x(35_C)
+5.964296803081572 x(36_C)
+3.738109564581904 x(37_C)
+6.7364694562687246 x(38_C)
+8.7621864606785351 x(39_C)
+8.9960277450672361 x(3_C)
+7.6380689652001257 x(40_C)
+1.984159185796512 x(41_C)
+9.3602484551693479 x(42_C)
+3.1202783711835149 x(43_C)
+9.4747394110569125 x(44_C)
+6.2109131568078064 x(45_C)
+3.2920591766494152 x(46_C)
+5.3917885364492619 x(47_C)
+7.0729684628301612 x(48_C)
+1.42547623613636 x(49_C)
+3.684528628999963 x(4_C)
+5.5241513978400709 x(50_C)
+5.8116559598080189 x(5_C)
+5.0675276545279679 x(6_C)
+5.5495480869339042 x(7_C)
+2.0944342048844931 x(8_C)
+2.876504396141621 x(9_C)
<= 28

c_u_volume_constraint(A)_:
+4.6864691145184798 x(10_A)
+9.318976296687925 x(11_A)
+2.8205471981831831 x(12_A)
+2.1439987640316729 x(13_A)
+5.0014352022413622 x(14_A)
+9.4253661870179535 x(15_A)
+6.1367574953773198 x(16_A)
+4.0938198394859144 x(17_A)
+2.9265926238769571 x(18_A)
+6.5748112009097186 x(19_A)
+1.0021111870774551 x(1_A)
+5.5064930373651881 x(20_A)
+3.9120317143715 x(21_A)
+5.8233314731510353 x(22_A)
+3.903271594379325 x(23_A)
+2.370892254698679 x(24_A)
+2.457906392440441 x(25_A)
+7.5341036151404053 x(26_A)
+3.3751243620565989 x(27_A)
+7.0174371046665103 x(28_A)
+4.4018634115775468 x(29_A)
+1.146790655011221 x(2_A)
+3.875286798402231 x(30_A)
+8.3582773709729299 x(31_A)
+7.5327534768817586 x(32_A)
+3.127890125602212 x(33_A)
+5.578154311081521 x(34_A)
+3.623110165059876 x(35_A)
+5.9376691719305814 x(36_A)
+1.130487544100959 x(37_A)
+9.6167568136515147 x(38_A)
+4.6536250866367848 x(39_A)
+5.0106434806956308 x(3_A)
+4.9887961222803039 x(40_A)
+8.6029982733424468 x(41_A)
+6.1185312829552583 x(42_A)
+6.2039545522864348 x(43_A)
+9.5190024012652277 x(44_A)
+4.0518967575460474 x(45_A)
+2.9142648522139161 x(46_A)
+1.85205849073388 x(47_A)
+2.3067478948452389 x(48_A)
+6.4305225564931883 x(49_A)
+4.4895473832104287 x(4_A)
+1.4899311854021891 x(50_A)
+3.5729540772077102 x(5_A)
+1.8128594374592559 x(6_A)
+5.4419640790618411 x(7_A)
+1.1851511699222641 x(8_A)
+7.0296186919217956 x(9_A)
<= 32

c_u_volume_constraint(B)_:
+4.6864691145184798 x(10_B)
+9.318976296687925 x(11_B)
+2.8205471981831831 x(12_B)
+2.1439987640316729 x(13_B)
+5.0014352022413622 x(14_B)
+9.4253661870179535 x(15_B)
+6.1367574953773198 x(16_B)
+4.0938198394859144 x(17_B)
+2.9265926238769571 x(18_B)
+6.5748112009097186 x(19_B)
+1.0021111870774551 x(1_B)
+5.5064930373651881 x(20_B)
+3.9120317143715 x(21_B)
+5.8233314731510353 x(22_B)
+3.903271594379325 x(23_B)
+2.370892254698679 x(24_B)
+2.457906392440441 x(25_B)
+7.5341036151404053 x(26_B)
+3.3751243620565989 x(27_B)
+7.0174371046665103 x(28_B)
+4.4018634115775468 x(29_B)
+1.146790655011221 x(2_B)
+3.875286798402231 x(30_B)
+8.3582773709729299 x(31_B)
+7.5327534768817586 x(32_B)
+3.127890125602212 x(33_B)
+5.578154311081521 x(34_B)
+3.623110165059876 x(35_B)
+5.9376691719305814 x(36_B)
+1.130487544100959 x(37_B)
+9.6167568136515147 x(38_B)
+4.6536250866367848 x(39_B)
+5.0106434806956308 x(3_B)
+4.9887961222803039 x(40_B)
+8.6029982733424468 x(41_B)
+6.1185312829552583 x(42_B)
+6.2039545522864348 x(43_B)
+9.5190024012652277 x(44_B)
+4.0518967575460474 x(45_B)
+2.9142648522139161 x(46_B)
+1.85205849073388 x(47_B)
+2.3067478948452389 x(48_B)
+6.4305225564931883 x(49_B)
+4.4895473832104287 x(4_B)
+1.4899311854021891 x(50_B)
+3.5729540772077102 x(5_B)
+1.8128594374592559 x(6_B)
+5.4419640790618411 x(7_B)
+1.1851511699222641 x(8_B)
+7.0296186919217956 x(9_B)
<= 22

c_u_volume_constraint(C)_:
+4.6864691145184798 x(10_C)
+9.318976296687925 x(11_C)
+2.8205471981831831 x(12_C)
+2.1439987640316729 x(13_C)
+5.0014352022413622 x(14_C)
+9.4253661870179535 x(15_C)
+6.1367574953773198 x(16_C)
+4.0938198394859144 x(17_C)
+2.9265926238769571 x(18_C)
+6.5748112009097186 x(19_C)
+1.0021111870774551 x(1_C)
+5.5064930373651881 x(20_C)
+3.9120317143715 x(21_C)
+5.8233314731510353 x(22_C)
+3.903271594379325 x(23_C)
+2.370892254698679 x(24_C)
+2.457906392440441 x(25_C)
+7.5341036151404053 x(26_C)
+3.3751243620565989 x(27_C)
+7.0174371046665103 x(28_C)
+4.4018634115775468 x(29_C)
+1.146790655011221 x(2_C)
+3.875286798402231 x(30_C)
+8.3582773709729299 x(31_C)
+7.5327534768817586 x(32_C)
+3.127890125602212 x(33_C)
+5.578154311081521 x(34_C)
+3.623110165059876 x(35_C)
+5.9376691719305814 x(36_C)
+1.130487544100959 x(37_C)
+9.6167568136515147 x(38_C)
+4.6536250866367848 x(39_C)
+5.0106434806956308 x(3_C)
+4.9887961222803039 x(40_C)
+8.6029982733424468 x(41_C)
+6.1185312829552583 x(42_C)
+6.2039545522864348 x(43_C)
+9.5190024012652277 x(44_C)
+4.0518967575460474 x(45_C)
+2.9142648522139161 x(46_C)
+1.85205849073388 x(47_C)
+2.3067478948452389 x(48_C)
+6.4305225564931883 x(49_C)
+4.4895473832104287 x(4_C)
+1.4899311854021891 x(50_C)
+3.5729540772077102 x(5_C)
+1.8128594374592559 x(6_C)
+5.4419640790618411 x(7_C)
+1.1851511699222641 x(8_C)
+7.0296186919217956 x(9_C)
<= 17

c_u_constr_max_categories_on_k(A)_:
+1 y(beverage_A)
+1 y(clothing_A)
+1 y(eletronics_A)
+1 y(food_A)
+1 y(other_A)
<= 2

c_u_constr_max_categories_on_k(B)_:
+1 y(beverage_B)
+1 y(clothing_B)
+1 y(eletronics_B)
+1 y(food_B)
+1 y(other_B)
<= 4

c_u_constr_max_categories_on_k(C)_:
+1 y(beverage_C)
+1 y(clothing_C)
+1 y(eletronics_C)
+1 y(food_C)
+1 y(other_C)
<= 3

c_u_constr_bin_cat_k(beverage_A)_:
+1 x(11_A)
+1 x(19_A)
+1 x(23_A)
+1 x(30_A)
+1 x(35_A)
+1 x(38_A)
+1 x(39_A)
+1 x(3_A)
+1 x(44_A)
+1 x(9_A)
-13 y(beverage_A)
<= 0

c_u_constr_bin_cat_k(beverage_B)_:
+1 x(11_B)
+1 x(19_B)
+1 x(23_B)
+1 x(30_B)
+1 x(35_B)
+1 x(38_B)
+1 x(39_B)
+1 x(3_B)
+1 x(44_B)
+1 x(9_B)
-13 y(beverage_B)
<= 0

c_u_constr_bin_cat_k(beverage_C)_:
+1 x(11_C)
+1 x(19_C)
+1 x(23_C)
+1 x(30_C)
+1 x(35_C)
+1 x(38_C)
+1 x(39_C)
+1 x(3_C)
+1 x(44_C)
+1 x(9_C)
-13 y(beverage_C)
<= 0

c_u_constr_bin_cat_k(clothing_A)_:
+1 x(12_A)
+1 x(14_A)
+1 x(18_A)
+1 x(25_A)
+1 x(26_A)
+1 x(4_A)
-9 y(clothing_A)
<= 0

c_u_constr_bin_cat_k(clothing_B)_:
+1 x(12_B)
+1 x(14_B)
+1 x(18_B)
+1 x(25_B)
+1 x(26_B)
+1 x(4_B)
-9 y(clothing_B)
<= 0

c_u_constr_bin_cat_k(clothing_C)_:
+1 x(12_C)
+1 x(14_C)
+1 x(18_C)
+1 x(25_C)
+1 x(26_C)
+1 x(4_C)
-9 y(clothing_C)
<= 0

c_u_constr_bin_cat_k(eletronics_A)_:
+1 x(13_A)
+1 x(1_A)
+1 x(20_A)
+1 x(22_A)
+1 x(29_A)
+1 x(2_A)
+1 x(33_A)
+1 x(34_A)
+1 x(36_A)
+1 x(45_A)
+1 x(47_A)
+1 x(48_A)
+1 x(50_A)
+1 x(5_A)
+1 x(6_A)
-15 y(eletronics_A)
<= 0

c_u_constr_bin_cat_k(eletronics_B)_:
+1 x(13_B)
+1 x(1_B)
+1 x(20_B)
+1 x(22_B)
+1 x(29_B)
+1 x(2_B)
+1 x(33_B)
+1 x(34_B)
+1 x(36_B)
+1 x(45_B)
+1 x(47_B)
+1 x(48_B)
+1 x(50_B)
+1 x(5_B)
+1 x(6_B)
-15 y(eletronics_B)
<= 0

c_u_constr_bin_cat_k(eletronics_C)_:
+1 x(13_C)
+1 x(1_C)
+1 x(20_C)
+1 x(22_C)
+1 x(29_C)
+1 x(2_C)
+1 x(33_C)
+1 x(34_C)
+1 x(36_C)
+1 x(45_C)
+1 x(47_C)
+1 x(48_C)
+1 x(50_C)
+1 x(5_C)
+1 x(6_C)
-15 y(eletronics_C)
<= 0

c_u_constr_bin_cat_k(food_A)_:
+1 x(15_A)
+1 x(16_A)
+1 x(24_A)
+1 x(27_A)
+1 x(31_A)
+1 x(32_A)
+1 x(37_A)
+1 x(40_A)
+1 x(42_A)
+1 x(8_A)
-20 y(food_A)
<= 0

c_u_constr_bin_cat_k(food_B)_:
+1 x(15_B)
+1 x(16_B)
+1 x(24_B)
+1 x(27_B)
+1 x(31_B)
+1 x(32_B)
+1 x(37_B)
+1 x(40_B)
+1 x(42_B)
+1 x(8_B)
-20 y(food_B)
<= 0

c_u_constr_bin_cat_k(food_C)_:
+1 x(15_C)
+1 x(16_C)
+1 x(24_C)
+1 x(27_C)
+1 x(31_C)
+1 x(32_C)
+1 x(37_C)
+1 x(40_C)
+1 x(42_C)
+1 x(8_C)
-20 y(food_C)
<= 0

c_u_constr_bin_cat_k(other_A)_:
+1 x(10_A)
+1 x(17_A)
+1 x(21_A)
+1 x(28_A)
+1 x(41_A)
+1 x(43_A)
+1 x(46_A)
+1 x(49_A)
+1 x(7_A)
-14 y(other_A)
<= 0

c_u_constr_bin_cat_k(other_B)_:
+1 x(10_B)
+1 x(17_B)
+1 x(21_B)
+1 x(28_B)
+1 x(41_B)
+1 x(43_B)
+1 x(46_B)
+1 x(49_B)
+1 x(7_B)
-14 y(other_B)
<= 0

c_u_constr_bin_cat_k(other_C)_:
+1 x(10_C)
+1 x(17_C)
+1 x(21_C)
+1 x(28_C)
+1 x(41_C)
+1 x(43_C)
+1 x(46_C)
+1 x(49_C)
+1 x(7_C)
-14 y(other_C)
<= 0

c_u_constr_binary_cat_item_k(1_A)_:
+1 x(1_A)
-1 y(eletronics_A)
<= 0

c_u_constr_binary_cat_item_k(1_B)_:
+1 x(1_B)
-1 y(eletronics_B)
<= 0

c_u_constr_binary_cat_item_k(1_C)_:
+1 x(1_C)
-1 y(eletronics_C)
<= 0

c_u_constr_binary_cat_item_k(2_A)_:
+1 x(2_A)
-1 y(eletronics_A)
<= 0

c_u_constr_binary_cat_item_k(2_B)_:
+1 x(2_B)
-1 y(eletronics_B)
<= 0

c_u_constr_binary_cat_item_k(2_C)_:
+1 x(2_C)
-1 y(eletronics_C)
<= 0

c_u_constr_binary_cat_item_k(3_A)_:
+1 x(3_A)
-1 y(beverage_A)
<= 0

c_u_constr_binary_cat_item_k(3_B)_:
+1 x(3_B)
-1 y(beverage_B)
<= 0

c_u_constr_binary_cat_item_k(3_C)_:
+1 x(3_C)
-1 y(beverage_C)
<= 0

c_u_constr_binary_cat_item_k(4_A)_:
+1 x(4_A)
-2 y(clothing_A)
<= 0

c_u_constr_binary_cat_item_k(4_B)_:
+1 x(4_B)
-2 y(clothing_B)
<= 0

c_u_constr_binary_cat_item_k(4_C)_:
+1 x(4_C)
-2 y(clothing_C)
<= 0

c_u_constr_binary_cat_item_k(5_A)_:
+1 x(5_A)
-1 y(eletronics_A)
<= 0

c_u_constr_binary_cat_item_k(5_B)_:
+1 x(5_B)
-1 y(eletronics_B)
<= 0

c_u_constr_binary_cat_item_k(5_C)_:
+1 x(5_C)
-1 y(eletronics_C)
<= 0

c_u_constr_binary_cat_item_k(6_A)_:
+1 x(6_A)
-1 y(eletronics_A)
<= 0

c_u_constr_binary_cat_item_k(6_B)_:
+1 x(6_B)
-1 y(eletronics_B)
<= 0

c_u_constr_binary_cat_item_k(6_C)_:
+1 x(6_C)
-1 y(eletronics_C)
<= 0

c_u_constr_binary_cat_item_k(7_A)_:
+1 x(7_A)
-2 y(other_A)
<= 0

c_u_constr_binary_cat_item_k(7_B)_:
+1 x(7_B)
-2 y(other_B)
<= 0

c_u_constr_binary_cat_item_k(7_C)_:
+1 x(7_C)
-2 y(other_C)
<= 0

c_u_constr_binary_cat_item_k(8_A)_:
+1 x(8_A)
-3 y(food_A)
<= 0

c_u_constr_binary_cat_item_k(8_B)_:
+1 x(8_B)
-3 y(food_B)
<= 0

c_u_constr_binary_cat_item_k(8_C)_:
+1 x(8_C)
-3 y(food_C)
<= 0

c_u_constr_binary_cat_item_k(9_A)_:
+1 x(9_A)
-2 y(beverage_A)
<= 0

c_u_constr_binary_cat_item_k(9_B)_:
+1 x(9_B)
-2 y(beverage_B)
<= 0

c_u_constr_binary_cat_item_k(9_C)_:
+1 x(9_C)
-2 y(beverage_C)
<= 0

c_u_constr_binary_cat_item_k(10_A)_:
+1 x(10_A)
-2 y(other_A)
<= 0

c_u_constr_binary_cat_item_k(10_B)_:
+1 x(10_B)
-2 y(other_B)
<= 0

c_u_constr_binary_cat_item_k(10_C)_:
+1 x(10_C)
-2 y(other_C)
<= 0

c_u_constr_binary_cat_item_k(11_A)_:
+1 x(11_A)
-1 y(beverage_A)
<= 0

c_u_constr_binary_cat_item_k(11_B)_:
+1 x(11_B)
-1 y(beverage_B)
<= 0

c_u_constr_binary_cat_item_k(11_C)_:
+1 x(11_C)
-1 y(beverage_C)
<= 0

c_u_constr_binary_cat_item_k(12_A)_:
+1 x(12_A)
-1 y(clothing_A)
<= 0

c_u_constr_binary_cat_item_k(12_B)_:
+1 x(12_B)
-1 y(clothing_B)
<= 0

c_u_constr_binary_cat_item_k(12_C)_:
+1 x(12_C)
-1 y(clothing_C)
<= 0

c_u_constr_binary_cat_item_k(13_A)_:
+1 x(13_A)
-1 y(eletronics_A)
<= 0

c_u_constr_binary_cat_item_k(13_B)_:
+1 x(13_B)
-1 y(eletronics_B)
<= 0

c_u_constr_binary_cat_item_k(13_C)_:
+1 x(13_C)
-1 y(eletronics_C)
<= 0

c_u_constr_binary_cat_item_k(14_A)_:
+1 x(14_A)
-1 y(clothing_A)
<= 0

c_u_constr_binary_cat_item_k(14_B)_:
+1 x(14_B)
-1 y(clothing_B)
<= 0

c_u_constr_binary_cat_item_k(14_C)_:
+1 x(14_C)
-1 y(clothing_C)
<= 0

c_u_constr_binary_cat_item_k(15_A)_:
+1 x(15_A)
-2 y(food_A)
<= 0

c_u_constr_binary_cat_item_k(15_B)_:
+1 x(15_B)
-2 y(food_B)
<= 0

c_u_constr_binary_cat_item_k(15_C)_:
+1 x(15_C)
-2 y(food_C)
<= 0

c_u_constr_binary_cat_item_k(16_A)_:
+1 x(16_A)
-1 y(food_A)
<= 0

c_u_constr_binary_cat_item_k(16_B)_:
+1 x(16_B)
-1 y(food_B)
<= 0

c_u_constr_binary_cat_item_k(16_C)_:
+1 x(16_C)
-1 y(food_C)
<= 0

c_u_constr_binary_cat_item_k(17_A)_:
+1 x(17_A)
-2 y(other_A)
<= 0

c_u_constr_binary_cat_item_k(17_B)_:
+1 x(17_B)
-2 y(other_B)
<= 0

c_u_constr_binary_cat_item_k(17_C)_:
+1 x(17_C)
-2 y(other_C)
<= 0

c_u_constr_binary_cat_item_k(18_A)_:
+1 x(18_A)
-2 y(clothing_A)
<= 0

c_u_constr_binary_cat_item_k(18_B)_:
+1 x(18_B)
-2 y(clothing_B)
<= 0

c_u_constr_binary_cat_item_k(18_C)_:
+1 x(18_C)
-2 y(clothing_C)
<= 0

c_u_constr_binary_cat_item_k(19_A)_:
+1 x(19_A)
-1 y(beverage_A)
<= 0

c_u_constr_binary_cat_item_k(19_B)_:
+1 x(19_B)
-1 y(beverage_B)
<= 0

c_u_constr_binary_cat_item_k(19_C)_:
+1 x(19_C)
-1 y(beverage_C)
<= 0

c_u_constr_binary_cat_item_k(20_A)_:
+1 x(20_A)
-1 y(eletronics_A)
<= 0

c_u_constr_binary_cat_item_k(20_B)_:
+1 x(20_B)
-1 y(eletronics_B)
<= 0

c_u_constr_binary_cat_item_k(20_C)_:
+1 x(20_C)
-1 y(eletronics_C)
<= 0

c_u_constr_binary_cat_item_k(21_A)_:
+1 x(21_A)
-2 y(other_A)
<= 0

c_u_constr_binary_cat_item_k(21_B)_:
+1 x(21_B)
-2 y(other_B)
<= 0

c_u_constr_binary_cat_item_k(21_C)_:
+1 x(21_C)
-2 y(other_C)
<= 0

c_u_constr_binary_cat_item_k(22_A)_:
+1 x(22_A)
-1 y(eletronics_A)
<= 0

c_u_constr_binary_cat_item_k(22_B)_:
+1 x(22_B)
-1 y(eletronics_B)
<= 0

c_u_constr_binary_cat_item_k(22_C)_:
+1 x(22_C)
-1 y(eletronics_C)
<= 0

c_u_constr_binary_cat_item_k(23_A)_:
+1 x(23_A)
-3 y(beverage_A)
<= 0

c_u_constr_binary_cat_item_k(23_B)_:
+1 x(23_B)
-3 y(beverage_B)
<= 0

c_u_constr_binary_cat_item_k(23_C)_:
+1 x(23_C)
-3 y(beverage_C)
<= 0

c_u_constr_binary_cat_item_k(24_A)_:
+1 x(24_A)
-2 y(food_A)
<= 0

c_u_constr_binary_cat_item_k(24_B)_:
+1 x(24_B)
-2 y(food_B)
<= 0

c_u_constr_binary_cat_item_k(24_C)_:
+1 x(24_C)
-2 y(food_C)
<= 0

c_u_constr_binary_cat_item_k(25_A)_:
+1 x(25_A)
-1 y(clothing_A)
<= 0

c_u_constr_binary_cat_item_k(25_B)_:
+1 x(25_B)
-1 y(clothing_B)
<= 0

c_u_constr_binary_cat_item_k(25_C)_:
+1 x(25_C)
-1 y(clothing_C)
<= 0

c_u_constr_binary_cat_item_k(26_A)_:
+1 x(26_A)
-2 y(clothing_A)
<= 0

c_u_constr_binary_cat_item_k(26_B)_:
+1 x(26_B)
-2 y(clothing_B)
<= 0

c_u_constr_binary_cat_item_k(26_C)_:
+1 x(26_C)
-2 y(clothing_C)
<= 0

c_u_constr_binary_cat_item_k(27_A)_:
+1 x(27_A)
-1 y(food_A)
<= 0

c_u_constr_binary_cat_item_k(27_B)_:
+1 x(27_B)
-1 y(food_B)
<= 0

c_u_constr_binary_cat_item_k(27_C)_:
+1 x(27_C)
-1 y(food_C)
<= 0

c_u_constr_binary_cat_item_k(28_A)_:
+1 x(28_A)
-1 y(other_A)
<= 0

c_u_constr_binary_cat_item_k(28_B)_:
+1 x(28_B)
-1 y(other_B)
<= 0

c_u_constr_binary_cat_item_k(28_C)_:
+1 x(28_C)
-1 y(other_C)
<= 0

c_u_constr_binary_cat_item_k(29_A)_:
+1 x(29_A)
-1 y(eletronics_A)
<= 0

c_u_constr_binary_cat_item_k(29_B)_:
+1 x(29_B)
-1 y(eletronics_B)
<= 0

c_u_constr_binary_cat_item_k(29_C)_:
+1 x(29_C)
-1 y(eletronics_C)
<= 0

c_u_constr_binary_cat_item_k(30_A)_:
+1 x(30_A)
-1 y(beverage_A)
<= 0

c_u_constr_binary_cat_item_k(30_B)_:
+1 x(30_B)
-1 y(beverage_B)
<= 0

c_u_constr_binary_cat_item_k(30_C)_:
+1 x(30_C)
-1 y(beverage_C)
<= 0

c_u_constr_binary_cat_item_k(31_A)_:
+1 x(31_A)
-3 y(food_A)
<= 0

c_u_constr_binary_cat_item_k(31_B)_:
+1 x(31_B)
-3 y(food_B)
<= 0

c_u_constr_binary_cat_item_k(31_C)_:
+1 x(31_C)
-3 y(food_C)
<= 0

c_u_constr_binary_cat_item_k(32_A)_:
+1 x(32_A)
-2 y(food_A)
<= 0

c_u_constr_binary_cat_item_k(32_B)_:
+1 x(32_B)
-2 y(food_B)
<= 0

c_u_constr_binary_cat_item_k(32_C)_:
+1 x(32_C)
-2 y(food_C)
<= 0

c_u_constr_binary_cat_item_k(33_A)_:
+1 x(33_A)
-1 y(eletronics_A)
<= 0

c_u_constr_binary_cat_item_k(33_B)_:
+1 x(33_B)
-1 y(eletronics_B)
<= 0

c_u_constr_binary_cat_item_k(33_C)_:
+1 x(33_C)
-1 y(eletronics_C)
<= 0

c_u_constr_binary_cat_item_k(34_A)_:
+1 x(34_A)
-1 y(eletronics_A)
<= 0

c_u_constr_binary_cat_item_k(34_B)_:
+1 x(34_B)
-1 y(eletronics_B)
<= 0

c_u_constr_binary_cat_item_k(34_C)_:
+1 x(34_C)
-1 y(eletronics_C)
<= 0

c_u_constr_binary_cat_item_k(35_A)_:
+1 x(35_A)
-1 y(beverage_A)
<= 0

c_u_constr_binary_cat_item_k(35_B)_:
+1 x(35_B)
-1 y(beverage_B)
<= 0

c_u_constr_binary_cat_item_k(35_C)_:
+1 x(35_C)
-1 y(beverage_C)
<= 0

c_u_constr_binary_cat_item_k(36_A)_:
+1 x(36_A)
-1 y(eletronics_A)
<= 0

c_u_constr_binary_cat_item_k(36_B)_:
+1 x(36_B)
-1 y(eletronics_B)
<= 0

c_u_constr_binary_cat_item_k(36_C)_:
+1 x(36_C)
-1 y(eletronics_C)
<= 0

c_u_constr_binary_cat_item_k(37_A)_:
+1 x(37_A)
-3 y(food_A)
<= 0

c_u_constr_binary_cat_item_k(37_B)_:
+1 x(37_B)
-3 y(food_B)
<= 0

c_u_constr_binary_cat_item_k(37_C)_:
+1 x(37_C)
-3 y(food_C)
<= 0

c_u_constr_binary_cat_item_k(38_A)_:
+1 x(38_A)
-1 y(beverage_A)
<= 0

c_u_constr_binary_cat_item_k(38_B)_:
+1 x(38_B)
-1 y(beverage_B)
<= 0

c_u_constr_binary_cat_item_k(38_C)_:
+1 x(38_C)
-1 y(beverage_C)
<= 0

c_u_constr_binary_cat_item_k(39_A)_:
+1 x(39_A)
-1 y(beverage_A)
<= 0

c_u_constr_binary_cat_item_k(39_B)_:
+1 x(39_B)
-1 y(beverage_B)
<= 0

c_u_constr_binary_cat_item_k(39_C)_:
+1 x(39_C)
-1 y(beverage_C)
<= 0

c_u_constr_binary_cat_item_k(40_A)_:
+1 x(40_A)
-2 y(food_A)
<= 0

c_u_constr_binary_cat_item_k(40_B)_:
+1 x(40_B)
-2 y(food_B)
<= 0

c_u_constr_binary_cat_item_k(40_C)_:
+1 x(40_C)
-2 y(food_C)
<= 0

c_u_constr_binary_cat_item_k(41_A)_:
+1 x(41_A)
-2 y(other_A)
<= 0

c_u_constr_binary_cat_item_k(41_B)_:
+1 x(41_B)
-2 y(other_B)
<= 0

c_u_constr_binary_cat_item_k(41_C)_:
+1 x(41_C)
-2 y(other_C)
<= 0

c_u_constr_binary_cat_item_k(42_A)_:
+1 x(42_A)
-1 y(food_A)
<= 0

c_u_constr_binary_cat_item_k(42_B)_:
+1 x(42_B)
-1 y(food_B)
<= 0

c_u_constr_binary_cat_item_k(42_C)_:
+1 x(42_C)
-1 y(food_C)
<= 0

c_u_constr_binary_cat_item_k(43_A)_:
+1 x(43_A)
-1 y(other_A)
<= 0

c_u_constr_binary_cat_item_k(43_B)_:
+1 x(43_B)
-1 y(other_B)
<= 0

c_u_constr_binary_cat_item_k(43_C)_:
+1 x(43_C)
-1 y(other_C)
<= 0

c_u_constr_binary_cat_item_k(44_A)_:
+1 x(44_A)
-1 y(beverage_A)
<= 0

c_u_constr_binary_cat_item_k(44_B)_:
+1 x(44_B)
-1 y(beverage_B)
<= 0

c_u_constr_binary_cat_item_k(44_C)_:
+1 x(44_C)
-1 y(beverage_C)
<= 0

c_u_constr_binary_cat_item_k(45_A)_:
+1 x(45_A)
-1 y(eletronics_A)
<= 0

c_u_constr_binary_cat_item_k(45_B)_:
+1 x(45_B)
-1 y(eletronics_B)
<= 0

c_u_constr_binary_cat_item_k(45_C)_:
+1 x(45_C)
-1 y(eletronics_C)
<= 0

c_u_constr_binary_cat_item_k(46_A)_:
+1 x(46_A)
-1 y(other_A)
<= 0

c_u_constr_binary_cat_item_k(46_B)_:
+1 x(46_B)
-1 y(other_B)
<= 0

c_u_constr_binary_cat_item_k(46_C)_:
+1 x(46_C)
-1 y(other_C)
<= 0

c_u_constr_binary_cat_item_k(47_A)_:
+1 x(47_A)
-1 y(eletronics_A)
<= 0

c_u_constr_binary_cat_item_k(47_B)_:
+1 x(47_B)
-1 y(eletronics_B)
<= 0

c_u_constr_binary_cat_item_k(47_C)_:
+1 x(47_C)
-1 y(eletronics_C)
<= 0

c_u_constr_binary_cat_item_k(48_A)_:
+1 x(48_A)
-1 y(eletronics_A)
<= 0

c_u_constr_binary_cat_item_k(48_B)_:
+1 x(48_B)
-1 y(eletronics_B)
<= 0

c_u_constr_binary_cat_item_k(48_C)_:
+1 x(48_C)
-1 y(eletronics_C)
<= 0

c_u_constr_binary_cat_item_k(49_A)_:
+1 x(49_A)
-1 y(other_A)
<= 0

c_u_constr_binary_cat_item_k(49_B)_:
+1 x(49_B)
-1 y(other_B)
<= 0

c_u_constr_binary_cat_item_k(49_C)_:
+1 x(49_C)
-1 y(other_C)
<= 0

c_u_constr_binary_cat_item_k(50_A)_:
+1 x(50_A)
-1 y(eletronics_A)
<= 0

c_u_constr_binary_cat_item_k(50_B)_:
+1 x(50_B)
-1 y(eletronics_B)
<= 0

c_u_constr_binary_cat_item_k(50_C)_:
+1 x(50_C)
-1 y(eletronics_C)
<= 0

c_e_ONE_VAR_CONSTANT: 
ONE_VAR_CONSTANT = 1.0

bounds
   0 <= x(1_A) <= 1
   0 <= x(1_B) <= 1
   0 <= x(1_C) <= 1
   0 <= x(2_A) <= 1
   0 <= x(2_B) <= 1
   0 <= x(2_C) <= 1
   0 <= x(3_A) <= 1
   0 <= x(3_B) <= 1
   0 <= x(3_C) <= 1
   0 <= x(4_A) <= 2
   0 <= x(4_B) <= 2
   0 <= x(4_C) <= 2
   0 <= x(5_A) <= 1
   0 <= x(5_B) <= 1
   0 <= x(5_C) <= 1
   0 <= x(6_A) <= 1
   0 <= x(6_B) <= 1
   0 <= x(6_C) <= 1
   0 <= x(7_A) <= 2
   0 <= x(7_B) <= 2
   0 <= x(7_C) <= 2
   0 <= x(8_A) <= 3
   0 <= x(8_B) <= 3
   0 <= x(8_C) <= 3
   0 <= x(9_A) <= 2
   0 <= x(9_B) <= 2
   0 <= x(9_C) <= 2
   0 <= x(10_A) <= 2
   0 <= x(10_B) <= 2
   0 <= x(10_C) <= 2
   0 <= x(11_A) <= 1
   0 <= x(11_B) <= 1
   0 <= x(11_C) <= 1
   0 <= x(12_A) <= 1
   0 <= x(12_B) <= 1
   0 <= x(12_C) <= 1
   0 <= x(13_A) <= 1
   0 <= x(13_B) <= 1
   0 <= x(13_C) <= 1
   0 <= x(14_A) <= 1
   0 <= x(14_B) <= 1
   0 <= x(14_C) <= 1
   0 <= x(15_A) <= 2
   0 <= x(15_B) <= 2
   0 <= x(15_C) <= 2
   0 <= x(16_A) <= 1
   0 <= x(16_B) <= 1
   0 <= x(16_C) <= 1
   0 <= x(17_A) <= 2
   0 <= x(17_B) <= 2
   0 <= x(17_C) <= 2
   0 <= x(18_A) <= 2
   0 <= x(18_B) <= 2
   0 <= x(18_C) <= 2
   0 <= x(19_A) <= 1
   0 <= x(19_B) <= 1
   0 <= x(19_C) <= 1
   0 <= x(20_A) <= 1
   0 <= x(20_B) <= 1
   0 <= x(20_C) <= 1
   0 <= x(21_A) <= 2
   0 <= x(21_B) <= 2
   0 <= x(21_C) <= 2
   0 <= x(22_A) <= 1
   0 <= x(22_B) <= 1
   0 <= x(22_C) <= 1
   0 <= x(23_A) <= 3
   0 <= x(23_B) <= 3
   0 <= x(23_C) <= 3
   0 <= x(24_A) <= 2
   0 <= x(24_B) <= 2
   0 <= x(24_C) <= 2
   0 <= x(25_A) <= 1
   0 <= x(25_B) <= 1
   0 <= x(25_C) <= 1
   0 <= x(26_A) <= 2
   0 <= x(26_B) <= 2
   0 <= x(26_C) <= 2
   0 <= x(27_A) <= 1
   0 <= x(27_B) <= 1
   0 <= x(27_C) <= 1
   0 <= x(28_A) <= 1
   0 <= x(28_B) <= 1
   0 <= x(28_C) <= 1
   0 <= x(29_A) <= 1
   0 <= x(29_B) <= 1
   0 <= x(29_C) <= 1
   0 <= x(30_A) <= 1
   0 <= x(30_B) <= 1
   0 <= x(30_C) <= 1
   0 <= x(31_A) <= 3
   0 <= x(31_B) <= 3
   0 <= x(31_C) <= 3
   0 <= x(32_A) <= 2
   0 <= x(32_B) <= 2
   0 <= x(32_C) <= 2
   0 <= x(33_A) <= 1
   0 <= x(33_B) <= 1
   0 <= x(33_C) <= 1
   0 <= x(34_A) <= 1
   0 <= x(34_B) <= 1
   0 <= x(34_C) <= 1
   0 <= x(35_A) <= 1
   0 <= x(35_B) <= 1
   0 <= x(35_C) <= 1
   0 <= x(36_A) <= 1
   0 <= x(36_B) <= 1
   0 <= x(36_C) <= 1
   0 <= x(37_A) <= 3
   0 <= x(37_B) <= 3
   0 <= x(37_C) <= 3
   0 <= x(38_A) <= 1
   0 <= x(38_B) <= 1
   0 <= x(38_C) <= 1
   0 <= x(39_A) <= 1
   0 <= x(39_B) <= 1
   0 <= x(39_C) <= 1
   0 <= x(40_A) <= 2
   0 <= x(40_B) <= 2
   0 <= x(40_C) <= 2
   0 <= x(41_A) <= 2
   0 <= x(41_B) <= 2
   0 <= x(41_C) <= 2
   0 <= x(42_A) <= 1
   0 <= x(42_B) <= 1
   0 <= x(42_C) <= 1
   0 <= x(43_A) <= 1
   0 <= x(43_B) <= 1
   0 <= x(43_C) <= 1
   0 <= x(44_A) <= 1
   0 <= x(44_B) <= 1
   0 <= x(44_C) <= 1
   0 <= x(45_A) <= 1
   0 <= x(45_B) <= 1
   0 <= x(45_C) <= 1
   0 <= x(46_A) <= 1
   0 <= x(46_B) <= 1
   0 <= x(46_C) <= 1
   0 <= x(47_A) <= 1
   0 <= x(47_B) <= 1
   0 <= x(47_C) <= 1
   0 <= x(48_A) <= 1
   0 <= x(48_B) <= 1
   0 <= x(48_C) <= 1
   0 <= x(49_A) <= 1
   0 <= x(49_B) <= 1
   0 <= x(49_C) <= 1
   0 <= x(50_A) <= 1
   0 <= x(50_B) <= 1
   0 <= x(50_C) <= 1
   0 <= y(beverage_A) <= 1
   0 <= y(beverage_B) <= 1
   0 <= y(beverage_C) <= 1
   0 <= y(clothing_A) <= 1
   0 <= y(clothing_B) <= 1
   0 <= y(clothing_C) <= 1
   0 <= y(eletronics_A) <= 1
   0 <= y(eletronics_B) <= 1
   0 <= y(eletronics_C) <= 1
   0 <= y(food_A) <= 1
   0 <= y(food_B) <= 1
   0 <= y(food_C) <= 1
   0 <= y(other_A) <= 1
   0 <= y(other_B) <= 1
   0 <= y(other_C) <= 1
general
  x(1_A)
  x(1_B)
  x(1_C)
  x(2_A)
  x(2_B)
  x(2_C)
  x(3_A)
  x(3_B)
  x(3_C)
  x(4_A)
  x(4_B)
  x(4_C)
  x(5_A)
  x(5_B)
  x(5_C)
  x(6_A)
  x(6_B)
  x(6_C)
  x(7_A)
  x(7_B)
  x(7_C)
  x(8_A)
  x(8_B)
  x(8_C)
  x(9_A)
  x(9_B)
  x(9_C)
  x(10_A)
  x(10_B)
  x(10_C)
  x(11_A)
  x(11_B)
  x(11_C)
  x(12_A)
  x(12_B)
  x(12_C)
  x(13_A)
  x(13_B)
  x(13_C)
  x(14_A)
  x(14_B)
  x(14_C)
  x(15_A)
  x(15_B)
  x(15_C)
  x(16_A)
  x(16_B)
  x(16_C)
  x(17_A)
  x(17_B)
  x(17_C)
  x(18_A)
  x(18_B)
  x(18_C)
  x(19_A)
  x(19_B)
  x(19_C)
  x(20_A)
  x(20_B)
  x(20_C)
  x(21_A)
  x(21_B)
  x(21_C)
  x(22_A)
  x(22_B)
  x(22_C)
  x(23_A)
  x(23_B)
  x(23_C)
  x(24_A)
  x(24_B)
  x(24_C)
  x(25_A)
  x(25_B)
  x(25_C)
  x(26_A)
  x(26_B)
  x(26_C)
  x(27_A)
  x(27_B)
  x(27_C)
  x(28_A)
  x(28_B)
  x(28_C)
  x(29_A)
  x(29_B)
  x(29_C)
  x(30_A)
  x(30_B)
  x(30_C)
  x(31_A)
  x(31_B)
  x(31_C)
  x(32_A)
  x(32_B)
  x(32_C)
  x(33_A)
  x(33_B)
  x(33_C)
  x(34_A)
  x(34_B)
  x(34_C)
  x(35_A)
  x(35_B)
  x(35_C)
  x(36_A)
  x(36_B)
  x(36_C)
  x(37_A)
  x(37_B)
  x(37_C)
  x(38_A)
  x(38_B)
  x(38_C)
  x(39_A)
  x(39_B)
  x(39_C)
  x(40_A)
  x(40_B)
  x(40_C)
  x(41_A)
  x(41_B)
  x(41_C)
  x(42_A)
  x(42_B)
  x(42_C)
  x(43_A)
  x(43_B)
  x(43_C)
  x(44_A)
  x(44_B)
  x(44_C)
  x(45_A)
  x(45_B)
  x(45_C)
  x(46_A)
  x(46_B)
  x(46_C)
  x(47_A)
  x(47_B)
  x(47_C)
  x(48_A)
  x(48_B)
  x(48_C)
  x(49_A)
  x(49_B)
  x(49_C)
  x(50_A)
  x(50_B)
  x(50_C)
binary
  y(beverage_A)
  y(beverage_B)
  y(beverage_C)
  y(clothing_A)
  y(clothing_B)
  y(clothing_C)
  y(eletronics_A)
  y(eletronics_B)
  y(eletronics_C)
  y(food_A)
  y(food_B)
  y(food_C)
  y(other_A)
  y(other_B)
  y(other_C)
end
